34 34
21
3 3 28 31
3 4 28 6
3 5 19 21
3 6 28 0
3 7 19 14
3 8 19 26
3 9 0 25
3 10 31 24
3 11 31 13
3 12 22 22
3 13 31 0
3 14 19 0
3 21 28 10
3 22 22 0
3 25 0 0
3 34 25 0
4 4 15 0
4 5 15 29
4 11 15 18
4 14 15 4
12 34 3 0
